letting n =  10
letting blocks =  [[2, 7], [2, 10], [4, 1], [4, 4], [4, 10], [5, 10], [6, 2], [6, 5], [6, 8], [6, 10], [7, 4], [8, 2], [8, 9], [9, 1], [9, 2], [9, 4], [9, 7], [9, 8], [10, 5], [10, 8]]
